objective value:                                11751
t_x_1                                               1 	(obj:66)
t_x_5                                               1 	(obj:10)
t_x_6                                               1 	(obj:21)
t_x_13                                              1 	(obj:19)
t_x_18                                              1 	(obj:32)
t_x_21                                              1 	(obj:3)
t_x_22                                              1 	(obj:17)
t_x_26                                              1 	(obj:42)
t_x_30                                              1 	(obj:36)
t_x_31                                              1 	(obj:20)
t_x_33                                              1 	(obj:13)
t_x_37                                              1 	(obj:64)
t_x_42                                              1 	(obj:21)
t_x_44                                              1 	(obj:20)
t_x_49                                              1 	(obj:10)
t_x_50                                              1 	(obj:21)
t_x_54                                              1 	(obj:9)
t_x_59                                              1 	(obj:6)
t_x_60                                              1 	(obj:0)
t_x_63                                              1 	(obj:23)
t_x_65                                              1 	(obj:38)
t_x_66                                              1 	(obj:65)
t_x_72                                              1 	(obj:2)
t_x_79                                              1 	(obj:17)
t_x_84                                              1 	(obj:12)
t_x_87                                              1 	(obj:46)
t_x_94                                              1 	(obj:2)
t_x_95                                              1 	(obj:17)
t_x_98                                              1 	(obj:7)
t_x_99                                              1 	(obj:13)
t_x_105                                             1 	(obj:14)
t_x_106                                             1 	(obj:44)
t_x_114                                             1 	(obj:21)
t_x_116                                             1 	(obj:24)
t_x_122                                             1 	(obj:23)
t_x_123                                             1 	(obj:16)
t_x_124                                             1 	(obj:62)
t_x_125                                             1 	(obj:79)
t_x_129                                             1 	(obj:12)
t_x_131                                             1 	(obj:17)
t_x_132                                             1 	(obj:50)
t_x_139                                             1 	(obj:34)
t_x_141                                             1 	(obj:11)
t_x_143                                             1 	(obj:20)
t_x_144                                             1 	(obj:11)
t_x_148                                             1 	(obj:16)
t_x_154                                             1 	(obj:43)
t_x_159                                             1 	(obj:3)
t_x_173                                             1 	(obj:5)
t_x_178                                             1 	(obj:5)
t_x_188                                             1 	(obj:18)
t_x_189                                             1 	(obj:20)
t_x_193                                             1 	(obj:8)
t_x_194                                             1 	(obj:16)
t_x_198                                             1 	(obj:47)
t_x_202                                             1 	(obj:4)
t_x_204                                             1 	(obj:8)
t_x_205                                             1 	(obj:4)
t_x_206                                             1 	(obj:27)
t_x_212                                             1 	(obj:7)
t_x_216                                             1 	(obj:16)
t_x_221                                             1 	(obj:25)
t_x_223                                             1 	(obj:12)
t_x_235                                             1 	(obj:4)
t_x_239                                             1 	(obj:2)
t_x_248                                             1 	(obj:13)
t_x_249                                             1 	(obj:40)
t_x_255                                             1 	(obj:50)
t_x_256                                             1 	(obj:4)
t_x_260                                             1 	(obj:53)
t_x_262                                             1 	(obj:9)
t_x_264                                             1 	(obj:14)
t_x_274                                             1 	(obj:6)
t_x_279                                             1 	(obj:14)
t_x_285                                             1 	(obj:26)
t_x_286                                             1 	(obj:4)
t_x_292                                             1 	(obj:15)
t_x_304                                             1 	(obj:8)
t_x_306                                             1 	(obj:4)
t_x_308                                             1 	(obj:0)
t_x_309                                             1 	(obj:0)
t_x_312                                             1 	(obj:23)
t_x_313                                             1 	(obj:21)
t_x_317                                             1 	(obj:18)
t_x_318                                             1 	(obj:39)
t_x_319                                             1 	(obj:28)
t_x_320                                             1 	(obj:61)
t_x_321                                             1 	(obj:17)
t_x_325                                             1 	(obj:11)
t_x_326                                             1 	(obj:2)
t_x_335                                             1 	(obj:18)
t_x_336                                             1 	(obj:28)
t_x_338                                             1 	(obj:15)
t_x_342                                             1 	(obj:36)
t_x_346                                             1 	(obj:12)
t_x_349                                             1 	(obj:18)
t_x_355                                             1 	(obj:49)
t_x_358                                             1 	(obj:11)
t_x_360                                             1 	(obj:1)
t_x_362                                             1 	(obj:14)
t_x_363                                             1 	(obj:12)
t_x_365                                             1 	(obj:63)
t_x_369                                             1 	(obj:17)
t_x_372                                             1 	(obj:24)
t_x_375                                             1 	(obj:31)
t_x_379                                             1 	(obj:16)
t_x_380                                             1 	(obj:3)
t_x_382                                             1 	(obj:7)
t_x_386                                             1 	(obj:6)
t_x_390                                             1 	(obj:9)
t_x_391                                             1 	(obj:9)
t_x_394                                             1 	(obj:25)
t_x_396                                             1 	(obj:5)
t_x_399                                             1 	(obj:5)
t_x_414                                             1 	(obj:17)
t_x_415                                             1 	(obj:13)
t_x_419                                             1 	(obj:35)
t_x_422                                             1 	(obj:6)
t_x_423                                             1 	(obj:3)
t_x_426                                             1 	(obj:3)
t_x_429                                             1 	(obj:5)
t_x_435                                             1 	(obj:3)
t_x_436                                             1 	(obj:3)
t_x_439                                             1 	(obj:12)
t_x_441                                             1 	(obj:17)
t_x_442                                             1 	(obj:41)
t_x_443                                             1 	(obj:21)
t_x_454                                             1 	(obj:7)
t_x_455                                             1 	(obj:2)
t_x_464                                             1 	(obj:0)
t_x_465                                             1 	(obj:0)
t_x_468                                             1 	(obj:61)
t_x_472                                             1 	(obj:7)
t_x_477                                             1 	(obj:13)
t_x_480                                             1 	(obj:11)
t_x_485                                             1 	(obj:62)
t_x_486                                             1 	(obj:3)
t_x_489                                             1 	(obj:9)
t_x_491                                             1 	(obj:58)
t_x_498                                             1 	(obj:27)
t_x_499                                             1 	(obj:4)
t_x_503                                             1 	(obj:29)
t_x_504                                             1 	(obj:11)
t_x_505                                             1 	(obj:24)
t_x_506                                             1 	(obj:46)
t_x_509                                             1 	(obj:3)
t_x_510                                             1 	(obj:18)
t_x_513                                             1 	(obj:14)
t_x_516                                             1 	(obj:41)
t_x_525                                             1 	(obj:3)
t_x_526                                             1 	(obj:10)
t_x_528                                             1 	(obj:29)
t_x_530                                             1 	(obj:31)
t_x_533                                             1 	(obj:21)
t_x_534                                             1 	(obj:11)
t_x_535                                             1 	(obj:28)
t_x_536                                             1 	(obj:6)
t_x_538                                             1 	(obj:35)
t_x_541                                             1 	(obj:27)
t_x_544                                             1 	(obj:31)
t_x_546                                             1 	(obj:29)
t_x_550                                             1 	(obj:6)
t_x_556                                             1 	(obj:6)
t_x_561                                             1 	(obj:20)
t_x_564                                             1 	(obj:11)
t_x_570                                             1 	(obj:11)
t_x_572                                             1 	(obj:34)
t_x_575                                             1 	(obj:43)
t_x_576                                             1 	(obj:7)
t_x_577                                             1 	(obj:17)
t_x_580                                             1 	(obj:35)
t_x_582                                             1 	(obj:41)
t_x_591                                             1 	(obj:7)
t_x_594                                             1 	(obj:37)
t_x_595                                             1 	(obj:13)
t_x_601                                             1 	(obj:9)
t_x_603                                             1 	(obj:45)
t_x_604                                             1 	(obj:8)
t_x_608                                             1 	(obj:26)
t_x_614                                             1 	(obj:16)
t_x_615                                             1 	(obj:33)
t_x_616                                             1 	(obj:17)
t_x_624                                             1 	(obj:7)
t_x_633                                             1 	(obj:15)
t_x_636                                             1 	(obj:31)
t_x_639                                             1 	(obj:17)
t_x_640                                             1 	(obj:29)
t_x_641                                             1 	(obj:6)
t_x_642                                             1 	(obj:19)
t_x_644                                             1 	(obj:12)
t_x_645                                             1 	(obj:14)
t_x_655                                             1 	(obj:13)
t_x_665                                             1 	(obj:3)
t_x_671                                             1 	(obj:3)
t_x_678                                             1 	(obj:37)
t_x_680                                             1 	(obj:27)
t_x_682                                             1 	(obj:4)
t_x_685                                             1 	(obj:53)
t_x_686                                             1 	(obj:51)
t_x_687                                             1 	(obj:21)
t_x_698                                             1 	(obj:35)
t_x_702                                             1 	(obj:41)
t_x_706                                             1 	(obj:3)
t_x_707                                             1 	(obj:3)
t_x_708                                             1 	(obj:46)
t_x_713                                             1 	(obj:13)
t_x_717                                             1 	(obj:7)
t_x_718                                             1 	(obj:1)
t_x_719                                             1 	(obj:3)
t_x_729                                             1 	(obj:56)
t_x_731                                             1 	(obj:20)
t_x_733                                             1 	(obj:39)
t_x_740                                             1 	(obj:57)
t_x_743                                             1 	(obj:4)
t_x_754                                             1 	(obj:34)
t_x_761                                             1 	(obj:16)
t_x_764                                             1 	(obj:12)
t_x_766                                             1 	(obj:1)
t_x_767                                             1 	(obj:6)
t_x_768                                             1 	(obj:9)
t_x_771                                             1 	(obj:10)
t_x_780                                             1 	(obj:29)
t_x_795                                             1 	(obj:24)
t_x_797                                             1 	(obj:15)
t_x_799                                             1 	(obj:11)
t_x_802                                             1 	(obj:17)
t_x_803                                             1 	(obj:7)
t_x_804                                             1 	(obj:66)
t_x_805                                             1 	(obj:48)
t_x_806                                             1 	(obj:50)
t_x_809                                             1 	(obj:6)
t_x_812                                             1 	(obj:53)
t_x_816                                             1 	(obj:37)
t_x_819                                             1 	(obj:13)
t_x_822                                             1 	(obj:32)
t_x_825                                             1 	(obj:4)
t_x_827                                             1 	(obj:18)
t_x_828                                             1 	(obj:40)
t_x_830                                             1 	(obj:13)
t_x_833                                             1 	(obj:0)
t_x_834                                             1 	(obj:18)
t_x_836                                             1 	(obj:8)
t_x_837                                             1 	(obj:17)
t_x_840                                             1 	(obj:18)
t_x_842                                             1 	(obj:28)
t_x_843                                             1 	(obj:9)
t_x_844                                             1 	(obj:6)
t_x_847                                             1 	(obj:11)
t_x_850                                             1 	(obj:7)
t_x_852                                             1 	(obj:31)
t_x_853                                             1 	(obj:54)
t_x_857                                             1 	(obj:52)
t_x_859                                             1 	(obj:3)
t_x_860                                             1 	(obj:33)
t_x_871                                             1 	(obj:3)
t_x_875                                             1 	(obj:12)
t_x_878                                             1 	(obj:10)
t_x_880                                             1 	(obj:25)
t_x_881                                             1 	(obj:28)
t_x_883                                             1 	(obj:22)
t_x_887                                             1 	(obj:12)
t_x_889                                             1 	(obj:9)
t_x_890                                             1 	(obj:4)
t_x_904                                             1 	(obj:28)
t_x_906                                             1 	(obj:21)
t_x_909                                             1 	(obj:6)
t_x_911                                             1 	(obj:1)
t_x_914                                             1 	(obj:14)
t_x_915                                             1 	(obj:25)
t_x_916                                             1 	(obj:6)
t_x_923                                             1 	(obj:1)
t_x_924                                             1 	(obj:22)
t_x_925                                             1 	(obj:16)
t_x_929                                             1 	(obj:31)
t_x_930                                             1 	(obj:37)
t_x_931                                             1 	(obj:21)
t_x_941                                             1 	(obj:14)
t_x_945                                             1 	(obj:67)
t_x_948                                             1 	(obj:9)
t_x_954                                             1 	(obj:40)
t_x_963                                             1 	(obj:36)
t_x_966                                             1 	(obj:5)
t_x_968                                             1 	(obj:35)
t_x_969                                             1 	(obj:10)
t_x_970                                             1 	(obj:4)
t_x_971                                             1 	(obj:7)
t_x_975                                             1 	(obj:51)
t_x_979                                             1 	(obj:60)
t_x_980                                             1 	(obj:8)
t_x_982                                             1 	(obj:34)
t_x_987                                             1 	(obj:49)
t_x_992                                             1 	(obj:25)
t_x_996                                             1 	(obj:22)
t_x_997                                             1 	(obj:9)
t_x_998                                             1 	(obj:38)
t_x_1001                                            1 	(obj:19)
t_x_1007                                            1 	(obj:5)
t_x_1010                                            1 	(obj:18)
t_x_1015                                            1 	(obj:22)
t_x_1028                                            1 	(obj:15)
t_x_1033                                            1 	(obj:0)
t_x_1034                                            1 	(obj:3)
t_x_1038                                            1 	(obj:23)
t_x_1039                                            1 	(obj:45)
t_x_1045                                            1 	(obj:29)
t_x_1050                                            1 	(obj:11)
t_x_1059                                            1 	(obj:14)
t_x_1068                                            1 	(obj:2)
t_x_1069                                            1 	(obj:49)
t_x_1071                                            1 	(obj:1)
t_x_1074                                            1 	(obj:19)
t_x_1077                                            1 	(obj:10)
t_x_1078                                            1 	(obj:20)
t_x_1082                                            1 	(obj:7)
t_x_1084                                            1 	(obj:11)
t_x_1086                                            1 	(obj:13)
t_x_1089                                            1 	(obj:77)
t_x_1092                                            1 	(obj:33)
t_x_1094                                            1 	(obj:17)
t_x_1096                                            1 	(obj:33)
t_x_1097                                            1 	(obj:22)
t_x_1099                                            1 	(obj:19)
t_x_1100                                            1 	(obj:12)
t_x_1101                                            1 	(obj:42)
t_x_1105                                            1 	(obj:8)
t_x_1106                                            1 	(obj:8)
t_x_1108                                            1 	(obj:9)
t_x_1110                                            1 	(obj:8)
t_x_1114                                            1 	(obj:4)
t_x_1120                                            1 	(obj:14)
t_x_1125                                            1 	(obj:5)
t_x_1126                                            1 	(obj:26)
t_x_1138                                            1 	(obj:13)
t_x_1139                                            1 	(obj:24)
t_x_1142                                            1 	(obj:31)
t_x_1152                                            1 	(obj:6)
t_x_1156                                            1 	(obj:31)
t_x_1161                                            1 	(obj:14)
t_x_1162                                            1 	(obj:24)
t_x_1165                                            1 	(obj:23)
t_x_1166                                            1 	(obj:5)
t_x_1170                                            1 	(obj:14)
t_x_1172                                            1 	(obj:18)
t_x_1176                                            1 	(obj:43)
t_x_1179                                            1 	(obj:16)
t_x_1180                                            1 	(obj:27)
t_x_1186                                            1 	(obj:6)
t_x_1187                                            1 	(obj:8)
t_x_1188                                            1 	(obj:21)
t_x_1190                                            1 	(obj:18)
t_x_1191                                            1 	(obj:9)
t_x_1193                                            1 	(obj:6)
t_x_1194                                            1 	(obj:21)
t_x_1197                                            1 	(obj:39)
t_x_1198                                            1 	(obj:20)
t_x_1199                                            1 	(obj:7)
t_x_1200                                            1 	(obj:20)
t_x_1206                                            1 	(obj:25)
t_x_1210                                            1 	(obj:39)
t_x_1218                                            1 	(obj:11)
t_x_1220                                            1 	(obj:7)
t_x_1224                                            1 	(obj:43)
t_x_1225                                            1 	(obj:54)
t_x_1226                                            1 	(obj:5)
t_x_1227                                            1 	(obj:36)
t_x_1228                                            1 	(obj:13)
t_x_1235                                            1 	(obj:33)
t_x_1237                                            1 	(obj:39)
t_x_1240                                            1 	(obj:3)
t_x_1242                                            1 	(obj:43)
t_x_1245                                            1 	(obj:20)
t_x_1246                                            1 	(obj:38)
t_x_1247                                            1 	(obj:18)
t_x_1255                                            1 	(obj:1)
t_x_1258                                            1 	(obj:32)
t_x_1263                                            1 	(obj:4)
t_x_1264                                            1 	(obj:4)
t_x_1265                                            1 	(obj:35)
t_x_1269                                            1 	(obj:35)
t_x_1271                                            1 	(obj:36)
t_x_1273                                            1 	(obj:23)
t_x_1276                                            1 	(obj:27)
t_x_1280                                            1 	(obj:19)
t_x_1285                                            1 	(obj:25)
t_x_1286                                            1 	(obj:10)
t_x_1287                                            1 	(obj:18)
t_x_1290                                            1 	(obj:7)
t_x_1291                                            1 	(obj:10)
t_x_1293                                            1 	(obj:41)
t_x_1295                                            1 	(obj:5)
t_x_1296                                            1 	(obj:11)
t_x_1299                                            1 	(obj:11)
t_x_1306                                            1 	(obj:26)
t_x_1308                                            1 	(obj:0)
t_x_1313                                            1 	(obj:4)
t_x_1314                                            1 	(obj:15)
t_x_1316                                            1 	(obj:35)
t_x_1319                                            1 	(obj:25)
t_x_1328                                            1 	(obj:25)
t_x_1336                                            1 	(obj:9)
t_x_1337                                            1 	(obj:5)
t_x_1340                                            1 	(obj:18)
t_x_1341                                            1 	(obj:25)
t_x_1342                                            1 	(obj:5)
t_x_1350                                            1 	(obj:12)
t_x_1353                                            1 	(obj:3)
t_x_1357                                            1 	(obj:19)
t_x_1360                                            1 	(obj:40)
t_x_1364                                            1 	(obj:10)
t_x_1367                                            1 	(obj:28)
t_x_1370                                            1 	(obj:2)
t_x_1372                                            1 	(obj:30)
t_x_1376                                            1 	(obj:15)
t_x_1378                                            1 	(obj:13)
t_x_1380                                            1 	(obj:28)
t_x_1384                                            1 	(obj:14)
t_x_1388                                            1 	(obj:5)
t_x_1392                                            1 	(obj:22)
t_x_1394                                            1 	(obj:31)
t_x_1397                                            1 	(obj:13)
t_x_1398                                            1 	(obj:10)
t_x_1408                                            1 	(obj:5)
t_x_1411                                            1 	(obj:9)
t_x_1418                                            1 	(obj:7)
t_x_1438                                            1 	(obj:6)
t_x_1441                                            1 	(obj:1)
t_x_1444                                            1 	(obj:9)
t_x_1446                                            1 	(obj:4)
t_x_1450                                            1 	(obj:16)
t_x_1451                                            1 	(obj:4)
t_x_1452                                            1 	(obj:0)
t_x_1457                                            1 	(obj:65)
t_x_1460                                            1 	(obj:20)
t_x_1462                                            1 	(obj:2)
t_x_1466                                            1 	(obj:1)
t_x_1468                                            1 	(obj:0)
t_x_1473                                            1 	(obj:19)
t_x_1485                                            1 	(obj:13)
t_x_1486                                            1 	(obj:9)
t_x_1488                                            1 	(obj:11)
t_x_1493                                            1 	(obj:3)
t_x_1496                                            1 	(obj:3)
t_x_1500                                            1 	(obj:7)
t_x_1518                                            1 	(obj:4)
t_x_1519                                            1 	(obj:1)
t_x_1521                                            1 	(obj:16)
t_x_1522                                            1 	(obj:13)
t_x_1529                                            1 	(obj:17)
t_x_1530                                            1 	(obj:45)
t_x_1531                                            1 	(obj:45)
t_x_1539                                            1 	(obj:46)
t_x_1544                                            1 	(obj:58)
t_x_1545                                            1 	(obj:19)
t_x_1548                                            1 	(obj:37)
t_x_1551                                            1 	(obj:21)
t_x_1553                                            1 	(obj:3)
t_x_1556                                            1 	(obj:28)
t_x_1559                                            1 	(obj:13)
t_x_1566                                            1 	(obj:22)
t_x_1573                                            1 	(obj:6)
t_x_1575                                            1 	(obj:3)
t_x_1583                                            1 	(obj:16)
t_x_1584                                            1 	(obj:33)
t_x_1586                                            1 	(obj:12)
t_x_1587                                            1 	(obj:41)
t_x_1589                                            1 	(obj:18)
t_x_1593                                            1 	(obj:54)
t_x_1599                                            1 	(obj:16)
t_x_1611                                            1 	(obj:18)
t_x_1612                                            1 	(obj:32)
t_x_1619                                            1 	(obj:1)
t_x_1620                                            1 	(obj:21)
t_x_1621                                            1 	(obj:31)
t_x_1625                                            1 	(obj:15)
t_x_1634                                            1 	(obj:52)
t_x_1643                                            1 	(obj:29)
t_x_1644                                            1 	(obj:7)
t_x_1646                                            1 	(obj:24)
t_x_1652                                            1 	(obj:14)
t_x_1655                                            1 	(obj:20)
t_x_1660                                            1 	(obj:6)
t_x_1661                                            1 	(obj:21)
t_x_1662                                            1 	(obj:11)
t_x_1663                                            1 	(obj:5)
t_x_1670                                            1 	(obj:4)
t_x_1672                                            1 	(obj:17)
t_x_1674                                            1 	(obj:29)
t_x_1678                                            1 	(obj:54)
t_x_1679                                            1 	(obj:0)
t_x_1681                                            1 	(obj:10)
t_x_1683                                            1 	(obj:3)
t_x_1686                                            1 	(obj:1)
t_x_1688                                            1 	(obj:33)
t_x_1689                                            1 	(obj:39)
t_x_1690                                            1 	(obj:24)
t_x_1696                                            1 	(obj:5)
t_x_1698                                            1 	(obj:13)
t_x_1699                                            1 	(obj:23)
t_x_1700                                            1 	(obj:0)
t_x_1701                                            1 	(obj:20)
t_x_1703                                            1 	(obj:21)
t_x_1704                                            1 	(obj:12)
t_x_1707                                            1 	(obj:32)
t_x_1714                                            1 	(obj:47)
t_x_1722                                            1 	(obj:2)
t_x_1723                                            1 	(obj:28)
t_x_1726                                            1 	(obj:20)
t_x_1732                                            1 	(obj:1)
t_x_1738                                            1 	(obj:12)
t_x_1739                                            1 	(obj:1)
t_x_1741                                            1 	(obj:17)
t_x_1745                                            1 	(obj:33)
t_x_1747                                            1 	(obj:16)
t_x_1748                                            1 	(obj:55)
t_x_1749                                            1 	(obj:0)
t_x_1753                                            1 	(obj:34)
t_x_1755                                            1 	(obj:34)
t_x_1757                                            1 	(obj:10)
t_x_1759                                            1 	(obj:7)
t_x_1765                                            1 	(obj:17)
t_x_1766                                            1 	(obj:6)
t_x_1767                                            1 	(obj:5)
t_x_1771                                            1 	(obj:11)
t_x_1773                                            1 	(obj:7)
t_x_1779                                            1 	(obj:39)
t_x_1782                                            1 	(obj:45)
t_x_1783                                            1 	(obj:15)
t_x_1784                                            1 	(obj:16)
t_x_1790                                            1 	(obj:18)
t_x_1797                                            1 	(obj:24)
t_x_1800                                            1 	(obj:34)
t_x_1802                                            1 	(obj:32)
t_x_1803                                            1 	(obj:19)
t_x_1808                                            1 	(obj:53)
t_x_1811                                            1 	(obj:5)
t_x_1813                                            1 	(obj:2)
t_x_1814                                            1 	(obj:1)
t_x_1815                                            1 	(obj:8)
t_x_1820                                            1 	(obj:35)
t_x_1824                                            1 	(obj:36)
t_x_1826                                            1 	(obj:4)
t_x_1829                                            1 	(obj:0)
t_x_1831                                            1 	(obj:43)
t_x_1839                                            1 	(obj:17)
t_x_1840                                            1 	(obj:7)
t_x_1843                                            1 	(obj:0)
t_x_1857                                            1 	(obj:20)
t_x_1868                                            1 	(obj:0)
t_x_1870                                            1 	(obj:54)
t_x_1873                                            1 	(obj:25)
t_x_1874                                            1 	(obj:22)
t_x_1875                                            1 	(obj:40)
t_x_1877                                            1 	(obj:17)
t_x_1879                                            1 	(obj:2)
t_x_1884                                            1 	(obj:16)
t_x_1885                                            1 	(obj:48)
t_x_1888                                            1 	(obj:16)
t_x_1891                                            1 	(obj:0)
t_x_1892                                            1 	(obj:42)
t_x_1898                                            1 	(obj:9)
t_x_1902                                            1 	(obj:10)
t_x_1911                                            1 	(obj:23)
t_x_1913                                            1 	(obj:1)
t_x_1917                                            1 	(obj:40)
t_x_1924                                            1 	(obj:11)
t_x_1925                                            1 	(obj:6)
t_x_1926                                            1 	(obj:19)
t_x_1928                                            1 	(obj:23)
t_x_1929                                            1 	(obj:23)
t_x_1930                                            1 	(obj:7)
t_x_1931                                            1 	(obj:20)
t_x_1933                                            1 	(obj:36)
t_x_1938                                            1 	(obj:13)
t_x_1942                                            1 	(obj:19)
t_x_1945                                            1 	(obj:37)
t_x_1948                                            1 	(obj:19)
t_x_1952                                            1 	(obj:29)
t_x_1953                                            1 	(obj:38)
t_x_1954                                            1 	(obj:11)
t_x_1957                                            1 	(obj:7)
t_x_1958                                            1 	(obj:18)
t_x_1960                                            1 	(obj:2)
t_x_1961                                            1 	(obj:15)
t_x_1963                                            1 	(obj:30)
t_x_1967                                            1 	(obj:23)
t_x_1973                                            1 	(obj:6)
t_x_1975                                            1 	(obj:2)
t_x_1977                                            1 	(obj:49)
t_x_1980                                            1 	(obj:10)
t_x_1983                                            1 	(obj:44)
t_x_1984                                            1 	(obj:21)
t_x_1986                                            1 	(obj:12)
t_x_1987                                            1 	(obj:19)
t_x_1989                                            1 	(obj:24)
t_x_1990                                            1 	(obj:21)
t_x_1996                                            1 	(obj:4)
